#Global Parameters
ISTART =  0            #(Read existing wavefunction, if there)
LREAL  =  Auto         #(Projection operators: automatic)
LWAVE  =  TRUE         #(Write WAVECAR or not)
LCHARG =  TRUE         #(Write CHGCAR or not)
#NCORE  =  4
LVDW   =  TRUE
IVDW   =  11
 
#Electronic Relaxation
ISMEAR =  0            #(Gaussian smearing, metals:1)
SIGMA  =  0.05         #(Smearing value in eV, metals:0.2)
EDIFF  =  1E-05        #(SCF energy convergence, in eV)
 
#Ionic Relaxation
NSW    =  0            #(Max ionic steps)
IBRION = -1            #(Algorithm: 0-MD, 1-Quasi-New, 2-CG)
ISIF   =  2            #(Stress/relaxation: 2-Ions, 3-Shape/Ions/V, 4-Shape/Ions)
EDIFFG = -1E-02        #(Ionic convergence, eV/AA)
