K-Spacing Value to Generate K-Mesh: 0.030
0
Monkhorst-Pack
   2   2   1
0.0  0.0  0.0
