Si Al  C  H  N  O                       
   1.00000000000000     
    11.5200423000000001    0.0000000000000000    0.0000000000000000
     0.0000000000000000   11.5200423000000001    0.0000000000000000
     0.0000000000000000    0.0000000000000000   37.0000000000000000
   Si   Al   C    H    N    O 
    36     1    27    18     3     3
Selective dynamics
Direct
  0.2424503276970498  0.0664252573372011  0.3040242433135063   F   F   F
  0.5757836598071080  0.0664252573372011  0.3040242433135063   F   F   F
  0.9091169919171662  0.0664252573372011  0.3040242433135063   F   F   F
  0.2424503276970498  0.3997585894472593  0.3040242433135063   F   F   F
  0.5757836598071080  0.3997585894472593  0.3040242433135063   F   F   F
  0.9091169919171662  0.3997585894472593  0.3040242433135063   F   F   F
  0.2424503276970498  0.7330919215583194  0.3040242433135063   F   F   F
  0.5757836598071080  0.7330919215583194  0.3040242433135063   F   F   F
  0.9091169919171662  0.7330919215583194  0.3040242433135063   F   F   F
  0.2424503276970498  0.2330919233927347  0.3403879022666203   F   F   F
  0.5757836598071080  0.2330919233927347  0.3403879022666203   F   F   F
  0.9091169919171662  0.2330919233927347  0.3403879022666203   F   F   F
  0.2424503276970498  0.5664252555027929  0.3403879022666203   F   F   F
  0.5757836598071080  0.5664252555027929  0.3403879022666203   F   F   F
  0.9091169919171662  0.5664252555027929  0.3403879022666203   F   F   F
  0.2424503276970498  0.8997585876128511  0.3403879022666203   F   F   F
  0.5757836598071080  0.8997585876128511  0.3403879022666203   F   F   F
  0.9091169919171662  0.8997585876128511  0.3403879022666203   F   F   F
  0.0735919343260339  0.1900204404452578  0.3785707931403818   T   T   T
  0.4098650982826341  0.2365854583136257  0.3783363316278152   T   T   T
  0.7417666000823490  0.2135769107856477  0.3776611986260469   T   T   T
  0.0705166846468525  0.5357723060950627  0.3790779204131891   T   T   T
  0.4127529947354147  0.5540484021923463  0.3834677685136567   T   T   T
  0.7434117986212434  0.5674563346388125  0.3784042893414822   T   T   T
  0.0720736920962176  0.8621830477912215  0.3785639909842499   T   T   T
  0.4056124289334812  0.8705857419431661  0.3800222841300638   T   T   T
  0.7419651962676075  0.9018157889154986  0.3793924932671628   T   T   T
  0.1789679683895262  0.0225996155030509  0.3989561216813395   T   T   T
  0.5020998596067121  0.0525663212606779  0.3854776866038804   T   T   T
  0.6839142915704386  0.0620478951769161  0.4152815103313863   T   T   T
  0.1671463677740646  0.3628275227754447  0.3949932108146962   T   T   T
  0.3587445518366473  0.3871757274763964  0.4200555405821202   T   T   T
  0.6225041641543620  0.3979365160634360  0.3813183712118831   T   T   T
  0.1833509703541688  0.6952808420729061  0.3961603480655527   T   T   T
  0.4622875802809535  0.7201050071669791  0.4183794859625920   T   T   T
  0.6723334171692786  0.7305257309581128  0.4093475664698211   T   T   T
  0.6907651239221618  0.4109064205758840  0.5118090320717020   T   T   T
  0.3826562390417291  0.0913949545209304  0.5031630913425543   T   T   T
  0.4547055192660082  0.1641818131775897  0.4822545030600868   T   T   T
  0.8605129846258546  0.2279777797319228  0.4829240503509684   T   T   T
  0.9734998576877557  0.1829780877397966  0.4790766137081479   T   T   T
  0.0640884697686857  0.2307597312270922  0.4985711764241104   T   T   T
  0.4625025577672923  0.1660301235995747  0.5588919161230052   T   T   T
  0.3841745226998250  0.0913567708911665  0.5406741317911937   T   T   T
  0.4723171578429299  0.5475811137868518  0.5392201738962926   T   T   T
  0.4176014366432642  0.6541231069441772  0.5464851937431835   T   T   T
  0.4657081897130562  0.7562077199955042  0.5334872943458357   T   T   T
  0.5653501072036138  0.7514971433056971  0.5112869660034928   T   T   T
  0.6261612046153321  0.8505357984436981  0.4976692638702523   T   T   T
  0.7211868531024879  0.8353826938859452  0.4760069470736543   T   T   T
  0.7565536004889524  0.7224359681337787  0.4624039315743531   T   T   T
  0.7071888090002751  0.6215044608038202  0.4794910238402793   T   T   T
  0.6090455286355340  0.6393100182790099  0.5032645943406078   T   T   T
  0.5318827378802103  0.2411062586898502  0.4988643937868953   T   T   T
  0.5355968726671911  0.2392211190457350  0.5376304152269552   T   T   T
  0.4752873830185147  0.1757655475166003  0.5968520968820448   T   T   T
  0.6239971019874050  0.3210990168677878  0.5881793138408851   T   T   T
  0.5554538152794470  0.2522789263288838  0.6113394418804660   T   T   T
  0.0425460745409828  0.3237349210198490  0.5227756078284831   T   T   T
  0.1272302172181141  0.3794115947422240  0.5445393420806731   T   T   T
  0.0933486585993458  0.4697708571951024  0.5669107979230686   T   T   T
  0.9774863892402875  0.5097321188343447  0.5688829297582726   T   T   T
  0.8912519348096931  0.4578642649360685  0.5478593147965428   T   T   T
  0.9257589606403257  0.3635686608229797  0.5249169777529300   T   T   T
  0.3235572193956847  0.0331889090901535  0.4887773328048176   T   T   T
  0.4494966794677562  0.1616294159722124  0.4528772185043525   T   T   T
  0.7873774460804904  0.1931291078666403  0.4674830502342144   T   T   T
  0.9881098561898328  0.1116894679424337  0.4601830413673601   T   T   T
  0.1526232462811387  0.1981824900981537  0.4953694340743743   T   T   T
  0.3258016475451418  0.0358939698897307  0.5562446411214331   T   T   T
  0.4396772019656526  0.4665353713065616  0.5506001907374460   T   T   T
  0.3390208872018135  0.6550008421842314  0.5629146824780595   T   T   T
  0.4274532182367795  0.8405070078007884  0.5398711620520078   T   T   T
  0.5964964127842641  0.9375331277088574  0.5048279980251071   T   T   T
  0.7687522132655346  0.9112848248312977  0.4664104276098876   T   T   T
  0.8454820271312413  0.7124700760325617  0.4523848857224561   T   T   T
  0.4211691678971826  0.1224244298069582  0.6145451168991987   T   T   T
  0.6875769475272108  0.3835061798511806  0.5982202990510292   T   T   T
  0.5662852501318960  0.2605670315794595  0.6405024339800091   T   T   T
  0.2173206665421130  0.3502797530042842  0.5433109867657638   T   T   T
  0.1583991669165951  0.5123717429004029  0.5838589290752340   T   T   T
  0.9542323520903820  0.5817037628855533  0.5866450493942519   T   T   T
  0.5668937829938813  0.5406574361799432  0.5185577433227520   T   T   T
  0.6136281025673888  0.3144013471989650  0.5523870542687406   T   T   T
  0.8377818946652280  0.3160599010010249  0.5051182772519056   T   T   T
  0.7442141418175440  0.5168696503905895  0.4750070474963700   T   T   T
  0.6013796604925703  0.3149686579513783  0.4821660808091448   T   T   T
  0.7803046558940492  0.4878239766125416  0.5473803276882016   T   T   T
 
  0.00000000E+00  0.00000000E+00  0.00000000E+00
  0.00000000E+00  0.00000000E+00  0.00000000E+00
  0.00000000E+00  0.00000000E+00  0.00000000E+00
  0.00000000E+00  0.00000000E+00  0.00000000E+00
  0.00000000E+00  0.00000000E+00  0.00000000E+00
  0.00000000E+00  0.00000000E+00  0.00000000E+00
  0.00000000E+00  0.00000000E+00  0.00000000E+00
  0.00000000E+00  0.00000000E+00  0.00000000E+00
  0.00000000E+00  0.00000000E+00  0.00000000E+00
  0.00000000E+00  0.00000000E+00  0.00000000E+00
  0.00000000E+00  0.00000000E+00  0.00000000E+00
  0.00000000E+00  0.00000000E+00  0.00000000E+00
  0.00000000E+00  0.00000000E+00  0.00000000E+00
  0.00000000E+00  0.00000000E+00  0.00000000E+00
  0.00000000E+00  0.00000000E+00  0.00000000E+00
  0.00000000E+00  0.00000000E+00  0.00000000E+00
  0.00000000E+00  0.00000000E+00  0.00000000E+00
  0.00000000E+00  0.00000000E+00  0.00000000E+00
  0.00000000E+00  0.00000000E+00  0.00000000E+00
  0.00000000E+00  0.00000000E+00  0.00000000E+00
  0.00000000E+00  0.00000000E+00  0.00000000E+00
  0.00000000E+00  0.00000000E+00  0.00000000E+00
  0.00000000E+00  0.00000000E+00  0.00000000E+00
  0.00000000E+00  0.00000000E+00  0.00000000E+00
  0.00000000E+00  0.00000000E+00  0.00000000E+00
  0.00000000E+00  0.00000000E+00  0.00000000E+00
  0.00000000E+00  0.00000000E+00  0.00000000E+00
  0.00000000E+00  0.00000000E+00  0.00000000E+00
  0.00000000E+00  0.00000000E+00  0.00000000E+00
  0.00000000E+00  0.00000000E+00  0.00000000E+00
  0.00000000E+00  0.00000000E+00  0.00000000E+00
  0.00000000E+00  0.00000000E+00  0.00000000E+00
  0.00000000E+00  0.00000000E+00  0.00000000E+00
  0.00000000E+00  0.00000000E+00  0.00000000E+00
  0.00000000E+00  0.00000000E+00  0.00000000E+00
  0.00000000E+00  0.00000000E+00  0.00000000E+00
  0.00000000E+00  0.00000000E+00  0.00000000E+00
  0.00000000E+00  0.00000000E+00  0.00000000E+00
  0.00000000E+00  0.00000000E+00  0.00000000E+00
  0.00000000E+00  0.00000000E+00  0.00000000E+00
  0.00000000E+00  0.00000000E+00  0.00000000E+00
  0.00000000E+00  0.00000000E+00  0.00000000E+00
  0.00000000E+00  0.00000000E+00  0.00000000E+00
  0.00000000E+00  0.00000000E+00  0.00000000E+00
  0.00000000E+00  0.00000000E+00  0.00000000E+00
  0.00000000E+00  0.00000000E+00  0.00000000E+00
  0.00000000E+00  0.00000000E+00  0.00000000E+00
  0.00000000E+00  0.00000000E+00  0.00000000E+00
  0.00000000E+00  0.00000000E+00  0.00000000E+00
  0.00000000E+00  0.00000000E+00  0.00000000E+00
  0.00000000E+00  0.00000000E+00  0.00000000E+00
  0.00000000E+00  0.00000000E+00  0.00000000E+00
  0.00000000E+00  0.00000000E+00  0.00000000E+00
  0.00000000E+00  0.00000000E+00  0.00000000E+00
  0.00000000E+00  0.00000000E+00  0.00000000E+00
  0.00000000E+00  0.00000000E+00  0.00000000E+00
  0.00000000E+00  0.00000000E+00  0.00000000E+00
  0.00000000E+00  0.00000000E+00  0.00000000E+00
  0.00000000E+00  0.00000000E+00  0.00000000E+00
  0.00000000E+00  0.00000000E+00  0.00000000E+00
  0.00000000E+00  0.00000000E+00  0.00000000E+00
  0.00000000E+00  0.00000000E+00  0.00000000E+00
  0.00000000E+00  0.00000000E+00  0.00000000E+00
  0.00000000E+00  0.00000000E+00  0.00000000E+00
  0.00000000E+00  0.00000000E+00  0.00000000E+00
  0.00000000E+00  0.00000000E+00  0.00000000E+00
  0.00000000E+00  0.00000000E+00  0.00000000E+00
  0.00000000E+00  0.00000000E+00  0.00000000E+00
  0.00000000E+00  0.00000000E+00  0.00000000E+00
  0.00000000E+00  0.00000000E+00  0.00000000E+00
  0.00000000E+00  0.00000000E+00  0.00000000E+00
  0.00000000E+00  0.00000000E+00  0.00000000E+00
  0.00000000E+00  0.00000000E+00  0.00000000E+00
  0.00000000E+00  0.00000000E+00  0.00000000E+00
  0.00000000E+00  0.00000000E+00  0.00000000E+00
  0.00000000E+00  0.00000000E+00  0.00000000E+00
  0.00000000E+00  0.00000000E+00  0.00000000E+00
  0.00000000E+00  0.00000000E+00  0.00000000E+00
  0.00000000E+00  0.00000000E+00  0.00000000E+00
  0.00000000E+00  0.00000000E+00  0.00000000E+00
  0.00000000E+00  0.00000000E+00  0.00000000E+00
  0.00000000E+00  0.00000000E+00  0.00000000E+00
  0.00000000E+00  0.00000000E+00  0.00000000E+00
  0.00000000E+00  0.00000000E+00  0.00000000E+00
  0.00000000E+00  0.00000000E+00  0.00000000E+00
  0.00000000E+00  0.00000000E+00  0.00000000E+00
  0.00000000E+00  0.00000000E+00  0.00000000E+00
  0.00000000E+00  0.00000000E+00  0.00000000E+00
