Ti12 O18                                
   1.00000000000000     
     2.5534153208876065   -4.4226450686021224    0.0000000000000000
     2.5534153208876065    4.4226450686021224    0.0000000000000000
     0.0000000000000000    0.0000000000000000   13.7770091524748626
   Ti   O 
    12    18
Direct
  0.3333333333333357  0.6666666666666643  0.0124763980532094
  0.0000000000000000  0.0000000000000000  0.1541902686134620
  0.3333333333333357  0.6666666666666643  0.3208569352801263
  0.6666666666666643  0.3333333333333357  0.1791430647198737
  0.0000000000000000  0.0000000000000000  0.3458097313865380
  0.6666666666666643  0.3333333333333357  0.4875236019467906
  0.0000000000000000  0.0000000000000000  0.6541902686134620
  0.3333333333333357  0.6666666666666643  0.5124763980532094
  0.6666666666666643  0.3333333333333357  0.6791430647198737
  0.3333333333333357  0.6666666666666643  0.8208569352801263
  0.6666666666666643  0.3333333333333357  0.9875236019467906
  0.0000000000000000  0.0000000000000000  0.8458097313865380
  0.3126798984377857  0.0000000000000000  0.2500000000000000
  0.0000000000000000  0.3126798984377857  0.2500000000000000
  0.6873201015622143  0.6873201015622143  0.2500000000000000
  0.3539867682288858  0.3333333333333357  0.0833333333333357
  0.6666666666666643  0.0206534348955500  0.0833333333333357
  0.9793465651044500  0.6460132317711142  0.0833333333333357
  0.9793465651044500  0.3333333333333357  0.5833333333333357
  0.6666666666666643  0.6460132317711142  0.5833333333333357
  0.3539867682288858  0.0206534348955500  0.5833333333333357
  0.0206534348955500  0.6666666666666643  0.4166666666666643
  0.3333333333333357  0.3539867682288858  0.4166666666666643
  0.6460132317711142  0.9793465651044500  0.4166666666666643
  0.6460132317711142  0.6666666666666643  0.9166666666666643
  0.3333333333333357  0.9793465651044500  0.9166666666666643
  0.0206534348955500  0.3539867682288858  0.9166666666666643
  0.6873201015622143  0.0000000000000000  0.7500000000000000
  0.0000000000000000  0.6873201015622143  0.7500000000000000
  0.3126798984377857  0.3126798984377857  0.7500000000000000
 
  0.00000000E+00  0.00000000E+00  0.00000000E+00
  0.00000000E+00  0.00000000E+00  0.00000000E+00
  0.00000000E+00  0.00000000E+00  0.00000000E+00
  0.00000000E+00  0.00000000E+00  0.00000000E+00
  0.00000000E+00  0.00000000E+00  0.00000000E+00
  0.00000000E+00  0.00000000E+00  0.00000000E+00
  0.00000000E+00  0.00000000E+00  0.00000000E+00
  0.00000000E+00  0.00000000E+00  0.00000000E+00
  0.00000000E+00  0.00000000E+00  0.00000000E+00
  0.00000000E+00  0.00000000E+00  0.00000000E+00
  0.00000000E+00  0.00000000E+00  0.00000000E+00
  0.00000000E+00  0.00000000E+00  0.00000000E+00
  0.00000000E+00  0.00000000E+00  0.00000000E+00
  0.00000000E+00  0.00000000E+00  0.00000000E+00
  0.00000000E+00  0.00000000E+00  0.00000000E+00
  0.00000000E+00  0.00000000E+00  0.00000000E+00
  0.00000000E+00  0.00000000E+00  0.00000000E+00
  0.00000000E+00  0.00000000E+00  0.00000000E+00
  0.00000000E+00  0.00000000E+00  0.00000000E+00
  0.00000000E+00  0.00000000E+00  0.00000000E+00
  0.00000000E+00  0.00000000E+00  0.00000000E+00
  0.00000000E+00  0.00000000E+00  0.00000000E+00
  0.00000000E+00  0.00000000E+00  0.00000000E+00
  0.00000000E+00  0.00000000E+00  0.00000000E+00
  0.00000000E+00  0.00000000E+00  0.00000000E+00
  0.00000000E+00  0.00000000E+00  0.00000000E+00
  0.00000000E+00  0.00000000E+00  0.00000000E+00
  0.00000000E+00  0.00000000E+00  0.00000000E+00
  0.00000000E+00  0.00000000E+00  0.00000000E+00
  0.00000000E+00  0.00000000E+00  0.00000000E+00
