#Global Parameters
ISTART  =  0            #(Read existing wavefunction, if there)
ENCUT   =  400          #(Cut-off energy for plane wave basis set, in eV)
PREC    =  Accurate     #(Precision level: Normal or Accurate, set Accurate when perform structure lattice relaxation calculation)
LWAVE   = .TRUE.        #(Write WAVECAR or not)
NBANDS  =  198

#Electronic Relaxation
ISMEAR  =  0            #(Gaussian smearing, metals:1)
SIGMA   =  0.05         #(Smearing value in eV, metals:0.2)
NELM    =  90           #(Max electronic SCF steps)
NELMIN  =  6            #(Min electronic SCF steps)
EDIFF   =  1E-08        #(SCF energy convergence, in eV)

#Ionic Relaxation
NSW     =  0            #(Max ionic steps)
IBRION  = -1            #(Algorithm: 0-MD, 1-Quasi-New, 2-CG)
ISIF    =  2            #(Stress/relaxation: 2-Ions, 3-Shape/Ions/V, 4-Shape/Ions)
EDIFFG  = -1E-02        #(Ionic convergence, eV/AA)
ISYM    = -1
