EA819   6.297  9.521  4.240 90.00 90.00 
   1.00000000000000     
     6.2998318005666372   -0.6770603130955006    0.0052535800978099
    -0.9381505132388300    9.6359353754596864    0.0177434527197224
    -0.0043293990285354   -0.0081241023707996    4.1831259507652003
   V    Fe
    17     3
Direct
  0.0974082339398844  0.2245200958511829  0.5499142236286326
  0.1087237569151996  0.7255343937722403  0.5503031004395285
  0.4943109749339458  0.3244419913736806  0.5499309736139477
  0.4001026232732919  0.6751153491427728  0.0502725449594225
  0.8020846902111685  0.7746756118322580  0.0503208164976807
  0.7928412315931331  0.2735480456283945  0.0499100283896934
  0.9981219948807970  0.5755521159312725  0.0501912210305123
  0.2059135543737455  0.3774452030985053  0.0499497949348205
  0.7028771366986311  0.1257029536228210  0.5499842299541080
  0.8929262107084754  0.9242460589002796  0.5502206336152203
  0.9073177163321078  0.4259767268782860  0.5499990692622821
  0.6914805221086548  0.6246927960594009  0.5502388415070393
  0.1997737704713004  0.8741690747374480  0.0502572878095189
  0.0074378026968509  0.0766746115182103  0.0500490085160993
  0.3059536577093633  0.0257740260192413  0.5501084458023379
  0.6004564483575051  0.4760553946174399  0.0500668195983636
  0.5943474256921750  0.9727828613898273  0.0501558714478649
  0.3008388524353580  0.5252613049093952  0.5501340647252179
  0.4993628003773862  0.8249661600036088  0.5502696577071844
  0.4001205962910131  0.1751062247137395  0.0499643665605169
 
  0.00000000E+00  0.00000000E+00  0.00000000E+00
  0.00000000E+00  0.00000000E+00  0.00000000E+00
  0.00000000E+00  0.00000000E+00  0.00000000E+00
  0.00000000E+00  0.00000000E+00  0.00000000E+00
  0.00000000E+00  0.00000000E+00  0.00000000E+00
  0.00000000E+00  0.00000000E+00  0.00000000E+00
  0.00000000E+00  0.00000000E+00  0.00000000E+00
  0.00000000E+00  0.00000000E+00  0.00000000E+00
  0.00000000E+00  0.00000000E+00  0.00000000E+00
  0.00000000E+00  0.00000000E+00  0.00000000E+00
  0.00000000E+00  0.00000000E+00  0.00000000E+00
  0.00000000E+00  0.00000000E+00  0.00000000E+00
  0.00000000E+00  0.00000000E+00  0.00000000E+00
  0.00000000E+00  0.00000000E+00  0.00000000E+00
  0.00000000E+00  0.00000000E+00  0.00000000E+00
  0.00000000E+00  0.00000000E+00  0.00000000E+00
  0.00000000E+00  0.00000000E+00  0.00000000E+00
  0.00000000E+00  0.00000000E+00  0.00000000E+00
  0.00000000E+00  0.00000000E+00  0.00000000E+00
  0.00000000E+00  0.00000000E+00  0.00000000E+00
