Ti12 O18                                
   1.00000000000000     
     2.5534153208876065   -4.4226450686021224    0.0000000000000000
     2.5534153208876065    4.4226450686021224    0.0000000000000000
     0.0000000000000000    0.0000000000000000   13.7770091524748626
   Ti   O 
    12    18
Direct
  0.3333333333333357  0.6666666666666643  0.0124763980532086
 -0.0000000000000000 -0.0000000000000000  0.1541902686134628
  0.3333333333333357  0.6666666666666643  0.3208569352801271
  0.6666666666666643  0.3333333333333357  0.1791430647198729
 -0.0000000000000000 -0.0000000000000000  0.3458097313865372
  0.6666666666666643  0.3333333333333357  0.4875236019467914
 -0.0000000000000000 -0.0000000000000000  0.6541902686134629
  0.3333333333333357  0.6666666666666643  0.5124763980532085
  0.6666666666666643  0.3333333333333357  0.6791430647198728
  0.3333333333333357  0.6666666666666643  0.8208569352801272
  0.6666666666666643  0.3333333333333357  0.9875236019467915
 -0.0000000000000000 -0.0000000000000000  0.8458097313865371
  0.3126798984377868 -0.0000000000000000  0.2500000000000000
  0.0000000000000000  0.3126798984377868  0.2500000000000000
  0.6873201015622132  0.6873201015622132  0.2500000000000000
  0.3539867682288846  0.3333333333333357  0.0833333333333357
  0.6666666666666643  0.0206534348955489  0.0833333333333357
  0.9793465651044511  0.6460132317711154  0.0833333333333357
  0.9793465651044511  0.3333333333333357  0.5833333333333357
  0.6666666666666643  0.6460132317711154  0.5833333333333357
  0.3539867682288846  0.0206534348955489  0.5833333333333357
  0.0206534348955489  0.6666666666666643  0.4166666666666643
  0.3333333333333357  0.3539867682288846  0.4166666666666643
  0.6460132317711154  0.9793465651044511  0.4166666666666643
  0.6460132317711154  0.6666666666666643  0.9166666666666643
  0.3333333333333357  0.9793465651044511  0.9166666666666643
  0.0206534348955489  0.3539867682288846  0.9166666666666643
  0.6873201015622132  0.0000000000000000  0.7500000000000000
 -0.0000000000000000  0.6873201015622132  0.7500000000000000
  0.3126798984377868  0.3126798984377868  0.7500000000000000
 
  0.00000000E+00  0.00000000E+00  0.00000000E+00
  0.00000000E+00  0.00000000E+00  0.00000000E+00
  0.00000000E+00  0.00000000E+00  0.00000000E+00
  0.00000000E+00  0.00000000E+00  0.00000000E+00
  0.00000000E+00  0.00000000E+00  0.00000000E+00
  0.00000000E+00  0.00000000E+00  0.00000000E+00
  0.00000000E+00  0.00000000E+00  0.00000000E+00
  0.00000000E+00  0.00000000E+00  0.00000000E+00
  0.00000000E+00  0.00000000E+00  0.00000000E+00
  0.00000000E+00  0.00000000E+00  0.00000000E+00
  0.00000000E+00  0.00000000E+00  0.00000000E+00
  0.00000000E+00  0.00000000E+00  0.00000000E+00
  0.00000000E+00  0.00000000E+00  0.00000000E+00
  0.00000000E+00  0.00000000E+00  0.00000000E+00
  0.00000000E+00  0.00000000E+00  0.00000000E+00
  0.00000000E+00  0.00000000E+00  0.00000000E+00
  0.00000000E+00  0.00000000E+00  0.00000000E+00
  0.00000000E+00  0.00000000E+00  0.00000000E+00
  0.00000000E+00  0.00000000E+00  0.00000000E+00
  0.00000000E+00  0.00000000E+00  0.00000000E+00
  0.00000000E+00  0.00000000E+00  0.00000000E+00
  0.00000000E+00  0.00000000E+00  0.00000000E+00
  0.00000000E+00  0.00000000E+00  0.00000000E+00
  0.00000000E+00  0.00000000E+00  0.00000000E+00
  0.00000000E+00  0.00000000E+00  0.00000000E+00
  0.00000000E+00  0.00000000E+00  0.00000000E+00
  0.00000000E+00  0.00000000E+00  0.00000000E+00
  0.00000000E+00  0.00000000E+00  0.00000000E+00
  0.00000000E+00  0.00000000E+00  0.00000000E+00
  0.00000000E+00  0.00000000E+00  0.00000000E+00
