  PREC = Accurate

  EDIFF = 1E-06
  EDIFFG = -0.01

  IBRION = 2
  ISIF = 3

  NSW = 200

  ISMEAR = 0
  SIGMA = 0.05

  POTIM = 0.5

  ISTART = 0
  ICHARG = 2

  LREAL = Auto
  LCHARG = FALSE
  LWAVE = FALSE
