K-Spacing Value to Generate K-Mesh: 0.030
0
Monkhorst-Pack
   9   9   2
0.0  0.0  0.0
