Ti12 O18
1.0
   2.5534153208876065   -4.4226450686021224    0.0000000000000000
   2.5534153208876065    4.4226450686021224    0.0000000000000000
   0.0000000000000000    0.0000000000000000   13.7770091524748626
Ti O
12 18
direct
   0.3333333333333333    0.6666666666666666    0.0112041366666668 Ti3+
   0.0000000000000000    0.0000000000000000    0.1554625299999998 Ti3+
   0.3333333333333333    0.6666666666666667    0.3221291966666665 Ti3+
   0.6666666666666667    0.3333333333333333    0.1778708033333335 Ti3+
   0.0000000000000000    0.0000000000000000    0.3445374700000001 Ti3+
   0.6666666666666666    0.3333333333333333    0.4887958633333331 Ti3+
   0.0000000000000000    0.0000000000000000    0.6554625299999999 Ti3+
   0.3333333333333335    0.6666666666666666    0.5112041366666668 Ti3+
   0.6666666666666666    0.3333333333333333    0.6778708033333334 Ti3+
   0.3333333333333333    0.6666666666666666    0.8221291966666665 Ti3+
   0.6666666666666666    0.3333333333333335    0.9887958633333331 Ti3+
   0.0000000000000000    0.0000000000000000    0.8445374700000001 Ti3+
   0.3143944600000002    0.0000000000000000    0.2500000000000000 O2-
   0.0000000000000000    0.3143944600000002    0.2500000000000000 O2-
   0.6856055399999998    0.6856055399999998    0.2500000000000000 O2-
   0.3522722066666664    0.3333333333333333    0.0833333333333333 O2-
   0.6666666666666666    0.0189388733333331    0.0833333333333333 O2-
   0.9810611266666669    0.6477277933333335    0.0833333333333333 O2-
   0.9810611266666669    0.3333333333333333    0.5833333333333333 O2-
   0.6666666666666666    0.6477277933333335    0.5833333333333333 O2-
   0.3522722066666666    0.0189388733333331    0.5833333333333333 O2-
   0.0189388733333331    0.6666666666666666    0.4166666666666666 O2-
   0.3333333333333333    0.3522722066666664    0.4166666666666666 O2-
   0.6477277933333334    0.9810611266666669    0.4166666666666666 O2-
   0.6477277933333335    0.6666666666666666    0.9166666666666666 O2-
   0.3333333333333333    0.9810611266666669    0.9166666666666666 O2-
   0.0189388733333331    0.3522722066666666    0.9166666666666666 O2-
   0.6856055399999997    0.0000000000000000    0.7500000000000000 O2-
   0.0000000000000000    0.6856055399999997    0.7500000000000000 O2-
   0.3143944600000002    0.3143944600000002    0.7500000000000000 O2-
